NAME : instances/clustered-mixed-tsp/instance-33.tsp
COMMENT : No Comment
TYPE : TSP
DIMENSION: 52
EDGE_WEIGHT_TYPE : EUC_2D
NODE_COORD_SECTION
1 -24 825 
2 1113 592 
3 714 977 
4 -173 112 
5 457 309 
6 963 362 
7 716 7 
8 422 287 
9 700 1187 
10 226 106 
11 700 578 
12 362 411 
13 222 446 
14 68 258 
15 585 89 
16 592 524 
17 -79 467 
18 826 1166 
19 380 784 
20 821 -266 
21 310 -230 
22 439 349 
23 744 63 
24 401 280 
25 151 993 
26 312 1196 
27 1096 -58 
28 461 662 
29 270 -100 
30 387 99 
31 168 769 
32 1200 387 
33 1047 418 
34 348 776 
35 534 295 
36 79 50 
37 422 406 
38 834 561 
39 58 211 
40 482 1222 
41 436 364 
42 244 760 
43 974 568 
44 739 222 
45 627 229 
46 51 770 
47 144 608 
48 144 1077 
49 370 690 
50 380 -147 
51 40 922 
52 1036 963 
EOF
